; benchmark generated from python API
(set-info :status unknown)
(declare-fun cell_1_3 () Int)
(declare-fun cell_1_9 () Int)
(declare-fun cell_2_1 () Int)
(declare-fun cell_2_6 () Int)
(declare-fun cell_3_4 () Int)
(declare-fun cell_3_9 () Int)
(declare-fun cell_4_4 () Int)
(declare-fun cell_4_7 () Int)
(declare-fun cell_5_3 () Int)
(declare-fun cell_5_8 () Int)
(declare-fun cell_6_2 () Int)
(declare-fun cell_6_6 () Int)
(declare-fun cell_7_2 () Int)
(declare-fun cell_7_7 () Int)
(declare-fun cell_8_5 () Int)
(declare-fun cell_8_8 () Int)
(declare-fun cell_9_5 () Int)
(declare-fun cell_1_1 () Int)
(declare-fun cell_3_1 () Int)
(declare-fun cell_4_1 () Int)
(declare-fun cell_5_1 () Int)
(declare-fun cell_6_1 () Int)
(declare-fun cell_7_1 () Int)
(declare-fun cell_8_1 () Int)
(declare-fun cell_9_1 () Int)
(declare-fun cell_1_2 () Int)
(declare-fun cell_2_2 () Int)
(declare-fun cell_3_2 () Int)
(declare-fun cell_4_2 () Int)
(declare-fun cell_5_2 () Int)
(declare-fun cell_8_2 () Int)
(declare-fun cell_9_2 () Int)
(declare-fun cell_2_3 () Int)
(declare-fun cell_3_3 () Int)
(declare-fun cell_4_3 () Int)
(declare-fun cell_6_3 () Int)
(declare-fun cell_7_3 () Int)
(declare-fun cell_8_3 () Int)
(declare-fun cell_9_3 () Int)
(declare-fun cell_1_4 () Int)
(declare-fun cell_2_4 () Int)
(declare-fun cell_5_4 () Int)
(declare-fun cell_6_4 () Int)
(declare-fun cell_7_4 () Int)
(declare-fun cell_8_4 () Int)
(declare-fun cell_9_4 () Int)
(declare-fun cell_1_5 () Int)
(declare-fun cell_2_5 () Int)
(declare-fun cell_3_5 () Int)
(declare-fun cell_4_5 () Int)
(declare-fun cell_5_5 () Int)
(declare-fun cell_6_5 () Int)
(declare-fun cell_7_5 () Int)
(declare-fun cell_1_6 () Int)
(declare-fun cell_3_6 () Int)
(declare-fun cell_4_6 () Int)
(declare-fun cell_5_6 () Int)
(declare-fun cell_7_6 () Int)
(declare-fun cell_8_6 () Int)
(declare-fun cell_9_6 () Int)
(declare-fun cell_1_7 () Int)
(declare-fun cell_2_7 () Int)
(declare-fun cell_3_7 () Int)
(declare-fun cell_5_7 () Int)
(declare-fun cell_6_7 () Int)
(declare-fun cell_8_7 () Int)
(declare-fun cell_9_7 () Int)
(declare-fun cell_1_8 () Int)
(declare-fun cell_2_8 () Int)
(declare-fun cell_3_8 () Int)
(declare-fun cell_4_8 () Int)
(declare-fun cell_6_8 () Int)
(declare-fun cell_7_8 () Int)
(declare-fun cell_9_8 () Int)
(declare-fun cell_2_9 () Int)
(declare-fun cell_4_9 () Int)
(declare-fun cell_5_9 () Int)
(declare-fun cell_6_9 () Int)
(declare-fun cell_7_9 () Int)
(declare-fun cell_8_9 () Int)
(declare-fun cell_9_9 () Int)
(assert
 (= cell_1_3 2))
(assert
 (= cell_1_9 1))
(assert
 (= cell_2_1 1))
(assert
 (= cell_2_6 2))
(assert
 (= cell_3_4 1))
(assert
 (= cell_3_9 2))
(assert
 (= cell_4_4 2))
(assert
 (= cell_4_7 1))
(assert
 (= cell_5_3 1))
(assert
 (= cell_5_8 2))
(assert
 (= cell_6_2 2))
(assert
 (= cell_6_6 1))
(assert
 (= cell_7_2 1))
(assert
 (= cell_7_7 2))
(assert
 (= cell_8_5 2))
(assert
 (= cell_8_8 1))
(assert
 (= cell_9_5 1))
(assert
 (let (($x2458 (= cell_1_1 9)))
 (let (($x1579 (= cell_1_1 8)))
 (let (($x300 (= cell_1_1 7)))
 (let (($x4132 (= cell_1_1 6)))
 (let (($x2420 (= cell_1_1 5)))
 (let (($x3376 (= cell_1_1 4)))
 (let (($x1357 (= cell_1_1 3)))
 (let (($x7866 (= cell_1_1 2)))
 (let (($x3667 (= cell_1_1 1)))
 (or $x3667 $x7866 $x1357 $x3376 $x2420 $x4132 $x300 $x1579 $x2458)))))))))))
(assert
 (let (($x1001 (= cell_2_1 1)))
 (or $x1001 (= cell_2_1 2) (= cell_2_1 3) (= cell_2_1 4) (= cell_2_1 5) (= cell_2_1 6) (= cell_2_1 7) (= cell_2_1 8) (= cell_2_1 9))))
(assert
 (let (($x862 (= cell_3_1 9)))
 (let (($x757 (= cell_3_1 8)))
 (let (($x2970 (= cell_3_1 7)))
 (let (($x185 (= cell_3_1 6)))
 (let (($x4155 (= cell_3_1 5)))
 (let (($x993 (= cell_3_1 4)))
 (let (($x28 (= cell_3_1 3)))
 (let (($x3757 (= cell_3_1 2)))
 (let (($x1985 (= cell_3_1 1)))
 (or $x1985 $x3757 $x28 $x993 $x4155 $x185 $x2970 $x757 $x862)))))))))))
(assert
 (let (($x1167 (= cell_4_1 9)))
 (let (($x1214 (= cell_4_1 8)))
 (let (($x3809 (= cell_4_1 7)))
 (let (($x2470 (= cell_4_1 6)))
 (let (($x8002 (= cell_4_1 5)))
 (let (($x1525 (= cell_4_1 4)))
 (let (($x816 (= cell_4_1 3)))
 (let (($x1291 (= cell_4_1 2)))
 (let (($x1763 (= cell_4_1 1)))
 (or $x1763 $x1291 $x816 $x1525 $x8002 $x2470 $x3809 $x1214 $x1167)))))))))))
(assert
 (let (($x1082 (= cell_5_1 9)))
 (let (($x3541 (= cell_5_1 8)))
 (let (($x2882 (= cell_5_1 7)))
 (let (($x2837 (= cell_5_1 6)))
 (let (($x813 (= cell_5_1 5)))
 (let (($x2372 (= cell_5_1 4)))
 (let (($x2346 (= cell_5_1 3)))
 (let (($x522 (= cell_5_1 2)))
 (let (($x3242 (= cell_5_1 1)))
 (or $x3242 $x522 $x2346 $x2372 $x813 $x2837 $x2882 $x3541 $x1082)))))))))))
(assert
 (let (($x1070 (= cell_6_1 9)))
 (let (($x2132 (= cell_6_1 8)))
 (let (($x3889 (= cell_6_1 7)))
 (let (($x447 (= cell_6_1 6)))
 (let (($x990 (= cell_6_1 5)))
 (let (($x3857 (= cell_6_1 4)))
 (let (($x846 (= cell_6_1 3)))
 (let (($x3214 (= cell_6_1 2)))
 (let (($x2920 (= cell_6_1 1)))
 (or $x2920 $x3214 $x846 $x3857 $x990 $x447 $x3889 $x2132 $x1070)))))))))))
(assert
 (let (($x3810 (= cell_7_1 9)))
 (let (($x352 (= cell_7_1 8)))
 (let (($x4180 (= cell_7_1 7)))
 (let (($x1060 (= cell_7_1 6)))
 (let (($x3792 (= cell_7_1 5)))
 (let (($x2391 (= cell_7_1 4)))
 (let (($x3359 (= cell_7_1 3)))
 (let (($x2160 (= cell_7_1 2)))
 (let (($x452 (= cell_7_1 1)))
 (or $x452 $x2160 $x3359 $x2391 $x3792 $x1060 $x4180 $x352 $x3810)))))))))))
(assert
 (let (($x3840 (= cell_8_1 9)))
 (let (($x253 (= cell_8_1 8)))
 (let (($x2288 (= cell_8_1 7)))
 (let (($x1933 (= cell_8_1 6)))
 (let (($x2584 (= cell_8_1 5)))
 (let (($x2949 (= cell_8_1 4)))
 (let (($x2097 (= cell_8_1 3)))
 (let (($x1349 (= cell_8_1 2)))
 (let (($x4083 (= cell_8_1 1)))
 (or $x4083 $x1349 $x2097 $x2949 $x2584 $x1933 $x2288 $x253 $x3840)))))))))))
(assert
 (let (($x2329 (= cell_9_1 9)))
 (let (($x2475 (= cell_9_1 8)))
 (let (($x2382 (= cell_9_1 7)))
 (let (($x2446 (= cell_9_1 6)))
 (let (($x2678 (= cell_9_1 5)))
 (let (($x3730 (= cell_9_1 4)))
 (let (($x312 (= cell_9_1 3)))
 (let (($x2587 (= cell_9_1 2)))
 (let (($x2141 (= cell_9_1 1)))
 (or $x2141 $x2587 $x312 $x3730 $x2678 $x2446 $x2382 $x2475 $x2329)))))))))))
(assert
 (let (($x3852 (= cell_1_2 9)))
 (let (($x3093 (= cell_1_2 8)))
 (let (($x1968 (= cell_1_2 7)))
 (let (($x1112 (= cell_1_2 6)))
 (let (($x2225 (= cell_1_2 5)))
 (let (($x1486 (= cell_1_2 4)))
 (let (($x1416 (= cell_1_2 3)))
 (let (($x705 (= cell_1_2 2)))
 (let (($x2699 (= cell_1_2 1)))
 (or $x2699 $x705 $x1416 $x1486 $x2225 $x1112 $x1968 $x3093 $x3852)))))))))))
(assert
 (let (($x3799 (= cell_2_2 9)))
 (let (($x2289 (= cell_2_2 8)))
 (let (($x900 (= cell_2_2 7)))
 (let (($x100 (= cell_2_2 6)))
 (let (($x169 (= cell_2_2 5)))
 (let (($x1764 (= cell_2_2 4)))
 (let (($x493 (= cell_2_2 3)))
 (let (($x700 (= cell_2_2 2)))
 (let (($x792 (= cell_2_2 1)))
 (or $x792 $x700 $x493 $x1764 $x169 $x100 $x900 $x2289 $x3799)))))))))))
(assert
 (let (($x552 (= cell_3_2 9)))
 (let (($x2661 (= cell_3_2 8)))
 (let (($x76 (= cell_3_2 7)))
 (let (($x471 (= cell_3_2 6)))
 (let (($x1554 (= cell_3_2 5)))
 (let (($x4150 (= cell_3_2 4)))
 (let (($x7980 (= cell_3_2 3)))
 (let (($x3278 (= cell_3_2 2)))
 (let (($x2461 (= cell_3_2 1)))
 (or $x2461 $x3278 $x7980 $x4150 $x1554 $x471 $x76 $x2661 $x552)))))))))))
(assert
 (let (($x2938 (= cell_4_2 9)))
 (let (($x2666 (= cell_4_2 8)))
 (let (($x3538 (= cell_4_2 7)))
 (let (($x1534 (= cell_4_2 6)))
 (let (($x1932 (= cell_4_2 5)))
 (let (($x1967 (= cell_4_2 4)))
 (let (($x1426 (= cell_4_2 3)))
 (let (($x2835 (= cell_4_2 2)))
 (let (($x1074 (= cell_4_2 1)))
 (or $x1074 $x2835 $x1426 $x1967 $x1932 $x1534 $x3538 $x2666 $x2938)))))))))))
(assert
 (let (($x3719 (= cell_5_2 9)))
 (let (($x2962 (= cell_5_2 8)))
 (let (($x870 (= cell_5_2 7)))
 (let (($x2773 (= cell_5_2 6)))
 (let (($x1876 (= cell_5_2 5)))
 (let (($x6700 (= cell_5_2 4)))
 (let (($x1752 (= cell_5_2 3)))
 (let (($x1679 (= cell_5_2 2)))
 (let (($x2456 (= cell_5_2 1)))
 (or $x2456 $x1679 $x1752 $x6700 $x1876 $x2773 $x870 $x2962 $x3719)))))))))))
(assert
 (let (($x429 (= cell_6_2 2)))
 (or (= cell_6_2 1) $x429 (= cell_6_2 3) (= cell_6_2 4) (= cell_6_2 5) (= cell_6_2 6) (= cell_6_2 7) (= cell_6_2 8) (= cell_6_2 9))))
(assert
 (let (($x2875 (= cell_7_2 1)))
 (or $x2875 (= cell_7_2 2) (= cell_7_2 3) (= cell_7_2 4) (= cell_7_2 5) (= cell_7_2 6) (= cell_7_2 7) (= cell_7_2 8) (= cell_7_2 9))))
(assert
 (let (($x651 (= cell_8_2 9)))
 (let (($x1889 (= cell_8_2 8)))
 (let (($x1013 (= cell_8_2 7)))
 (let (($x1383 (= cell_8_2 6)))
 (let (($x2434 (= cell_8_2 5)))
 (let (($x1607 (= cell_8_2 4)))
 (let (($x1714 (= cell_8_2 3)))
 (let (($x1079 (= cell_8_2 2)))
 (let (($x3628 (= cell_8_2 1)))
 (or $x3628 $x1079 $x1714 $x1607 $x2434 $x1383 $x1013 $x1889 $x651)))))))))))
(assert
 (let (($x1574 (= cell_9_2 9)))
 (let (($x7484 (= cell_9_2 8)))
 (let (($x974 (= cell_9_2 7)))
 (let (($x1715 (= cell_9_2 6)))
 (let (($x3870 (= cell_9_2 5)))
 (let (($x193 (= cell_9_2 4)))
 (let (($x1415 (= cell_9_2 3)))
 (let (($x1444 (= cell_9_2 2)))
 (let (($x1143 (= cell_9_2 1)))
 (or $x1143 $x1444 $x1415 $x193 $x3870 $x1715 $x974 $x7484 $x1574)))))))))))
(assert
 (let (($x1027 (= cell_1_3 2)))
 (or (= cell_1_3 1) $x1027 (= cell_1_3 3) (= cell_1_3 4) (= cell_1_3 5) (= cell_1_3 6) (= cell_1_3 7) (= cell_1_3 8) (= cell_1_3 9))))
(assert
 (let (($x3136 (= cell_2_3 9)))
 (let (($x2598 (= cell_2_3 8)))
 (let (($x2698 (= cell_2_3 7)))
 (let (($x3769 (= cell_2_3 6)))
 (let (($x1682 (= cell_2_3 5)))
 (let (($x1171 (= cell_2_3 4)))
 (let (($x7047 (= cell_2_3 3)))
 (let (($x1568 (= cell_2_3 2)))
 (let (($x2544 (= cell_2_3 1)))
 (or $x2544 $x1568 $x7047 $x1171 $x1682 $x3769 $x2698 $x2598 $x3136)))))))))))
(assert
 (let (($x1031 (= cell_3_3 9)))
 (let (($x1064 (= cell_3_3 8)))
 (let (($x3100 (= cell_3_3 7)))
 (let (($x1285 (= cell_3_3 6)))
 (let (($x1684 (= cell_3_3 5)))
 (let (($x2020 (= cell_3_3 4)))
 (let (($x470 (= cell_3_3 3)))
 (let (($x3324 (= cell_3_3 2)))
 (let (($x1092 (= cell_3_3 1)))
 (or $x1092 $x3324 $x470 $x2020 $x1684 $x1285 $x3100 $x1064 $x1031)))))))))))
(assert
 (let (($x3716 (= cell_4_3 9)))
 (let (($x292 (= cell_4_3 8)))
 (let (($x1851 (= cell_4_3 7)))
 (let (($x2478 (= cell_4_3 6)))
 (let (($x2284 (= cell_4_3 5)))
 (let (($x574 (= cell_4_3 4)))
 (let (($x2220 (= cell_4_3 3)))
 (let (($x2297 (= cell_4_3 2)))
 (let (($x3119 (= cell_4_3 1)))
 (or $x3119 $x2297 $x2220 $x574 $x2284 $x2478 $x1851 $x292 $x3716)))))))))))
(assert
 (let (($x3434 (= cell_5_3 1)))
 (or $x3434 (= cell_5_3 2) (= cell_5_3 3) (= cell_5_3 4) (= cell_5_3 5) (= cell_5_3 6) (= cell_5_3 7) (= cell_5_3 8) (= cell_5_3 9))))
(assert
 (let (($x774 (= cell_6_3 9)))
 (let (($x612 (= cell_6_3 8)))
 (let (($x1350 (= cell_6_3 7)))
 (let (($x3402 (= cell_6_3 6)))
 (let (($x3336 (= cell_6_3 5)))
 (let (($x2347 (= cell_6_3 4)))
 (let (($x1400 (= cell_6_3 3)))
 (let (($x2179 (= cell_6_3 2)))
 (let (($x606 (= cell_6_3 1)))
 (or $x606 $x2179 $x1400 $x2347 $x3336 $x3402 $x1350 $x612 $x774)))))))))))
(assert
 (let (($x2599 (= cell_7_3 9)))
 (let (($x4092 (= cell_7_3 8)))
 (let (($x3190 (= cell_7_3 7)))
 (let (($x714 (= cell_7_3 6)))
 (let (($x1352 (= cell_7_3 5)))
 (let (($x1833 (= cell_7_3 4)))
 (let (($x1239 (= cell_7_3 3)))
 (let (($x3034 (= cell_7_3 2)))
 (let (($x1984 (= cell_7_3 1)))
 (or $x1984 $x3034 $x1239 $x1833 $x1352 $x714 $x3190 $x4092 $x2599)))))))))))
(assert
 (let (($x19 (= cell_8_3 9)))
 (let (($x1919 (= cell_8_3 8)))
 (let (($x4093 (= cell_8_3 7)))
 (let (($x822 (= cell_8_3 6)))
 (let (($x1145 (= cell_8_3 5)))
 (let (($x269 (= cell_8_3 4)))
 (let (($x2838 (= cell_8_3 3)))
 (let (($x1709 (= cell_8_3 2)))
 (let (($x528 (= cell_8_3 1)))
 (or $x528 $x1709 $x2838 $x269 $x1145 $x822 $x4093 $x1919 $x19)))))))))))
(assert
 (let (($x958 (= cell_9_3 9)))
 (let (($x1893 (= cell_9_3 8)))
 (let (($x1735 (= cell_9_3 7)))
 (let (($x3340 (= cell_9_3 6)))
 (let (($x7748 (= cell_9_3 5)))
 (let (($x3847 (= cell_9_3 4)))
 (let (($x170 (= cell_9_3 3)))
 (let (($x6733 (= cell_9_3 2)))
 (let (($x3478 (= cell_9_3 1)))
 (or $x3478 $x6733 $x170 $x3847 $x7748 $x3340 $x1735 $x1893 $x958)))))))))))
(assert
 (let (($x1363 (= cell_1_4 9)))
 (let (($x2063 (= cell_1_4 8)))
 (let (($x3647 (= cell_1_4 7)))
 (let (($x953 (= cell_1_4 6)))
 (let (($x1804 (= cell_1_4 5)))
 (let (($x1059 (= cell_1_4 4)))
 (let (($x1530 (= cell_1_4 3)))
 (let (($x48 (= cell_1_4 2)))
 (let (($x268 (= cell_1_4 1)))
 (or $x268 $x48 $x1530 $x1059 $x1804 $x953 $x3647 $x2063 $x1363)))))))))))
(assert
 (let (($x1012 (= cell_2_4 9)))
 (let (($x2516 (= cell_2_4 8)))
 (let (($x1626 (= cell_2_4 7)))
 (let (($x2795 (= cell_2_4 6)))
 (let (($x2705 (= cell_2_4 5)))
 (let (($x910 (= cell_2_4 4)))
 (let (($x3832 (= cell_2_4 3)))
 (let (($x2886 (= cell_2_4 2)))
 (let (($x1262 (= cell_2_4 1)))
 (or $x1262 $x2886 $x3832 $x910 $x2705 $x2795 $x1626 $x2516 $x1012)))))))))))
(assert
 (let (($x2767 (= cell_3_4 1)))
 (or $x2767 (= cell_3_4 2) (= cell_3_4 3) (= cell_3_4 4) (= cell_3_4 5) (= cell_3_4 6) (= cell_3_4 7) (= cell_3_4 8) (= cell_3_4 9))))
(assert
 (let (($x492 (= cell_4_4 2)))
 (or (= cell_4_4 1) $x492 (= cell_4_4 3) (= cell_4_4 4) (= cell_4_4 5) (= cell_4_4 6) (= cell_4_4 7) (= cell_4_4 8) (= cell_4_4 9))))
(assert
 (let (($x529 (= cell_5_4 9)))
 (let (($x7993 (= cell_5_4 8)))
 (let (($x2794 (= cell_5_4 7)))
 (let (($x783 (= cell_5_4 6)))
 (let (($x3295 (= cell_5_4 5)))
 (let (($x4189 (= cell_5_4 4)))
 (let (($x2048 (= cell_5_4 3)))
 (let (($x1326 (= cell_5_4 2)))
 (let (($x1395 (= cell_5_4 1)))
 (or $x1395 $x1326 $x2048 $x4189 $x3295 $x783 $x2794 $x7993 $x529)))))))))))
(assert
 (let (($x1987 (= cell_6_4 9)))
 (let (($x1774 (= cell_6_4 8)))
 (let (($x3916 (= cell_6_4 7)))
 (let (($x8011 (= cell_6_4 6)))
 (let (($x119 (= cell_6_4 5)))
 (let (($x3317 (= cell_6_4 4)))
 (let (($x469 (= cell_6_4 3)))
 (let (($x584 (= cell_6_4 2)))
 (let (($x3779 (= cell_6_4 1)))
 (or $x3779 $x584 $x469 $x3317 $x119 $x8011 $x3916 $x1774 $x1987)))))))))))
(assert
 (let (($x93 (= cell_7_4 9)))
 (let (($x823 (= cell_7_4 8)))
 (let (($x3610 (= cell_7_4 7)))
 (let (($x2707 (= cell_7_4 6)))
 (let (($x4179 (= cell_7_4 5)))
 (let (($x174 (= cell_7_4 4)))
 (let (($x3606 (= cell_7_4 3)))
 (let (($x359 (= cell_7_4 2)))
 (let (($x997 (= cell_7_4 1)))
 (or $x997 $x359 $x3606 $x174 $x4179 $x2707 $x3610 $x823 $x93)))))))))))
(assert
 (let (($x1831 (= cell_8_4 9)))
 (let (($x2129 (= cell_8_4 8)))
 (let (($x1274 (= cell_8_4 7)))
 (let (($x1495 (= cell_8_4 6)))
 (let (($x648 (= cell_8_4 5)))
 (let (($x273 (= cell_8_4 4)))
 (let (($x991 (= cell_8_4 3)))
 (let (($x3395 (= cell_8_4 2)))
 (let (($x1558 (= cell_8_4 1)))
 (or $x1558 $x3395 $x991 $x273 $x648 $x1495 $x1274 $x2129 $x1831)))))))))))
(assert
 (let (($x2800 (= cell_9_4 9)))
 (let (($x776 (= cell_9_4 8)))
 (let (($x960 (= cell_9_4 7)))
 (let (($x3767 (= cell_9_4 6)))
 (let (($x2615 (= cell_9_4 5)))
 (let (($x3971 (= cell_9_4 4)))
 (let (($x1783 (= cell_9_4 3)))
 (let (($x1621 (= cell_9_4 2)))
 (let (($x2355 (= cell_9_4 1)))
 (or $x2355 $x1621 $x1783 $x3971 $x2615 $x3767 $x960 $x776 $x2800)))))))))))
(assert
 (let (($x955 (= cell_1_5 9)))
 (let (($x3050 (= cell_1_5 8)))
 (let (($x1366 (= cell_1_5 7)))
 (let (($x1000 (= cell_1_5 6)))
 (let (($x3624 (= cell_1_5 5)))
 (let (($x1515 (= cell_1_5 4)))
 (let (($x646 (= cell_1_5 3)))
 (let (($x108 (= cell_1_5 2)))
 (let (($x7791 (= cell_1_5 1)))
 (or $x7791 $x108 $x646 $x1515 $x3624 $x1000 $x1366 $x3050 $x955)))))))))))
(assert
 (let (($x1166 (= cell_2_5 9)))
 (let (($x1411 (= cell_2_5 8)))
 (let (($x1991 (= cell_2_5 7)))
 (let (($x1990 (= cell_2_5 6)))
 (let (($x742 (= cell_2_5 5)))
 (let (($x53 (= cell_2_5 4)))
 (let (($x1854 (= cell_2_5 3)))
 (let (($x1739 (= cell_2_5 2)))
 (let (($x3341 (= cell_2_5 1)))
 (or $x3341 $x1739 $x1854 $x53 $x742 $x1990 $x1991 $x1411 $x1166)))))))))))
(assert
 (let (($x339 (= cell_3_5 9)))
 (let (($x3121 (= cell_3_5 8)))
 (let (($x622 (= cell_3_5 7)))
 (let (($x2473 (= cell_3_5 6)))
 (let (($x2860 (= cell_3_5 5)))
 (let (($x737 (= cell_3_5 4)))
 (let (($x157 (= cell_3_5 3)))
 (let (($x3897 (= cell_3_5 2)))
 (let (($x30 (= cell_3_5 1)))
 (or $x30 $x3897 $x157 $x737 $x2860 $x2473 $x622 $x3121 $x339)))))))))))
(assert
 (let (($x6981 (= cell_4_5 9)))
 (let (($x229 (= cell_4_5 8)))
 (let (($x1551 (= cell_4_5 7)))
 (let (($x3724 (= cell_4_5 6)))
 (let (($x2813 (= cell_4_5 5)))
 (let (($x3163 (= cell_4_5 4)))
 (let (($x509 (= cell_4_5 3)))
 (let (($x99 (= cell_4_5 2)))
 (let (($x3169 (= cell_4_5 1)))
 (or $x3169 $x99 $x509 $x3163 $x2813 $x3724 $x1551 $x229 $x6981)))))))))))
(assert
 (let (($x2546 (= cell_5_5 9)))
 (let (($x3390 (= cell_5_5 8)))
 (let (($x1057 (= cell_5_5 7)))
 (let (($x3145 (= cell_5_5 6)))
 (let (($x1490 (= cell_5_5 5)))
 (let (($x3665 (= cell_5_5 4)))
 (let (($x3782 (= cell_5_5 3)))
 (let (($x2119 (= cell_5_5 2)))
 (let (($x1734 (= cell_5_5 1)))
 (or $x1734 $x2119 $x3782 $x3665 $x1490 $x3145 $x1057 $x3390 $x2546)))))))))))
(assert
 (let (($x2762 (= cell_6_5 9)))
 (let (($x1410 (= cell_6_5 8)))
 (let (($x1042 (= cell_6_5 7)))
 (let (($x2383 (= cell_6_5 6)))
 (let (($x1168 (= cell_6_5 5)))
 (let (($x320 (= cell_6_5 4)))
 (let (($x8008 (= cell_6_5 3)))
 (let (($x21 (= cell_6_5 2)))
 (let (($x3789 (= cell_6_5 1)))
 (or $x3789 $x21 $x8008 $x320 $x1168 $x2383 $x1042 $x1410 $x2762)))))))))))
(assert
 (let (($x1255 (= cell_7_5 9)))
 (let (($x1268 (= cell_7_5 8)))
 (let (($x916 (= cell_7_5 7)))
 (let (($x2128 (= cell_7_5 6)))
 (let (($x582 (= cell_7_5 5)))
 (let (($x3445 (= cell_7_5 4)))
 (let (($x7674 (= cell_7_5 3)))
 (let (($x4224 (= cell_7_5 2)))
 (let (($x806 (= cell_7_5 1)))
 (or $x806 $x4224 $x7674 $x3445 $x582 $x2128 $x916 $x1268 $x1255)))))))))))
(assert
 (let (($x4131 (= cell_8_5 2)))
 (or (= cell_8_5 1) $x4131 (= cell_8_5 3) (= cell_8_5 4) (= cell_8_5 5) (= cell_8_5 6) (= cell_8_5 7) (= cell_8_5 8) (= cell_8_5 9))))
(assert
 (let (($x927 (= cell_9_5 1)))
 (or $x927 (= cell_9_5 2) (= cell_9_5 3) (= cell_9_5 4) (= cell_9_5 5) (= cell_9_5 6) (= cell_9_5 7) (= cell_9_5 8) (= cell_9_5 9))))
(assert
 (let (($x1899 (= cell_1_6 9)))
 (let (($x2243 (= cell_1_6 8)))
 (let (($x763 (= cell_1_6 7)))
 (let (($x2642 (= cell_1_6 6)))
 (let (($x1821 (= cell_1_6 5)))
 (let (($x1703 (= cell_1_6 4)))
 (let (($x1503 (= cell_1_6 3)))
 (let (($x7044 (= cell_1_6 2)))
 (let (($x2883 (= cell_1_6 1)))
 (or $x2883 $x7044 $x1503 $x1703 $x1821 $x2642 $x763 $x2243 $x1899)))))))))))
(assert
 (let (($x911 (= cell_2_6 2)))
 (or (= cell_2_6 1) $x911 (= cell_2_6 3) (= cell_2_6 4) (= cell_2_6 5) (= cell_2_6 6) (= cell_2_6 7) (= cell_2_6 8) (= cell_2_6 9))))
(assert
 (let (($x3406 (= cell_3_6 9)))
 (let (($x1272 (= cell_3_6 8)))
 (let (($x3203 (= cell_3_6 7)))
 (let (($x4247 (= cell_3_6 6)))
 (let (($x869 (= cell_3_6 5)))
 (let (($x694 (= cell_3_6 4)))
 (let (($x731 (= cell_3_6 3)))
 (let (($x1666 (= cell_3_6 2)))
 (let (($x2271 (= cell_3_6 1)))
 (or $x2271 $x1666 $x731 $x694 $x869 $x4247 $x3203 $x1272 $x3406)))))))))))
(assert
 (let (($x2172 (= cell_4_6 9)))
 (let (($x7822 (= cell_4_6 8)))
 (let (($x4156 (= cell_4_6 7)))
 (let (($x750 (= cell_4_6 6)))
 (let (($x4124 (= cell_4_6 5)))
 (let (($x3080 (= cell_4_6 4)))
 (let (($x586 (= cell_4_6 3)))
 (let (($x3739 (= cell_4_6 2)))
 (let (($x2878 (= cell_4_6 1)))
 (or $x2878 $x3739 $x586 $x3080 $x4124 $x750 $x4156 $x7822 $x2172)))))))))))
(assert
 (let (($x3326 (= cell_5_6 9)))
 (let (($x3330 (= cell_5_6 8)))
 (let (($x2818 (= cell_5_6 7)))
 (let (($x2786 (= cell_5_6 6)))
 (let (($x2009 (= cell_5_6 5)))
 (let (($x856 (= cell_5_6 4)))
 (let (($x3232 (= cell_5_6 3)))
 (let (($x1075 (= cell_5_6 2)))
 (let (($x2094 (= cell_5_6 1)))
 (or $x2094 $x1075 $x3232 $x856 $x2009 $x2786 $x2818 $x3330 $x3326)))))))))))
(assert
 (let (($x629 (= cell_6_6 1)))
 (or $x629 (= cell_6_6 2) (= cell_6_6 3) (= cell_6_6 4) (= cell_6_6 5) (= cell_6_6 6) (= cell_6_6 7) (= cell_6_6 8) (= cell_6_6 9))))
(assert
 (let (($x1465 (= cell_7_6 9)))
 (let (($x1845 (= cell_7_6 8)))
 (let (($x51 (= cell_7_6 7)))
 (let (($x3231 (= cell_7_6 6)))
 (let (($x209 (= cell_7_6 5)))
 (let (($x1557 (= cell_7_6 4)))
 (let (($x342 (= cell_7_6 3)))
 (let (($x3589 (= cell_7_6 2)))
 (let (($x697 (= cell_7_6 1)))
 (or $x697 $x3589 $x342 $x1557 $x209 $x3231 $x51 $x1845 $x1465)))))))))))
(assert
 (let (($x1792 (= cell_8_6 9)))
 (let (($x1337 (= cell_8_6 8)))
 (let (($x402 (= cell_8_6 7)))
 (let (($x1433 (= cell_8_6 6)))
 (let (($x363 (= cell_8_6 5)))
 (let (($x580 (= cell_8_6 4)))
 (let (($x1091 (= cell_8_6 3)))
 (let (($x3287 (= cell_8_6 2)))
 (let (($x3906 (= cell_8_6 1)))
 (or $x3906 $x3287 $x1091 $x580 $x363 $x1433 $x402 $x1337 $x1792)))))))))))
(assert
 (let (($x1196 (= cell_9_6 2)))
 (let (($x3361 (= cell_9_6 1)))
 (or $x3361 $x1196 (= cell_9_6 3) (= cell_9_6 4) (= cell_9_6 5) (= cell_9_6 6) (= cell_9_6 7) (= cell_9_6 8) (= cell_9_6 9)))))
(assert
 (let (($x2570 (= cell_1_7 9)))
 (let (($x112 (= cell_1_7 8)))
 (let (($x3575 (= cell_1_7 7)))
 (let (($x2557 (= cell_1_7 6)))
 (let (($x2098 (= cell_1_7 5)))
 (let (($x4243 (= cell_1_7 4)))
 (let (($x1838 (= cell_1_7 3)))
 (let (($x308 (= cell_1_7 2)))
 (let (($x1866 (= cell_1_7 1)))
 (or $x1866 $x308 $x1838 $x4243 $x2098 $x2557 $x3575 $x112 $x2570)))))))))))
(assert
 (let (($x2968 (= cell_2_7 9)))
 (let (($x1135 (= cell_2_7 8)))
 (let (($x80 (= cell_2_7 7)))
 (let (($x3372 (= cell_2_7 6)))
 (let (($x642 (= cell_2_7 5)))
 (let (($x2610 (= cell_2_7 4)))
 (let (($x61 (= cell_2_7 3)))
 (let (($x1466 (= cell_2_7 2)))
 (let (($x843 (= cell_2_7 1)))
 (or $x843 $x1466 $x61 $x2610 $x642 $x3372 $x80 $x1135 $x2968)))))))))))
(assert
 (let (($x1501 (= cell_3_7 9)))
 (let (($x26 (= cell_3_7 8)))
 (let (($x3205 (= cell_3_7 7)))
 (let (($x6988 (= cell_3_7 6)))
 (let (($x7875 (= cell_3_7 5)))
 (let (($x31 (= cell_3_7 4)))
 (let (($x2606 (= cell_3_7 3)))
 (let (($x1604 (= cell_3_7 2)))
 (let (($x455 (= cell_3_7 1)))
 (or $x455 $x1604 $x2606 $x31 $x7875 $x6988 $x3205 $x26 $x1501)))))))))))
(assert
 (let (($x41 (= cell_4_7 1)))
 (or $x41 (= cell_4_7 2) (= cell_4_7 3) (= cell_4_7 4) (= cell_4_7 5) (= cell_4_7 6) (= cell_4_7 7) (= cell_4_7 8) (= cell_4_7 9))))
(assert
 (let (($x1347 (= cell_5_7 9)))
 (let (($x1211 (= cell_5_7 8)))
 (let (($x1636 (= cell_5_7 7)))
 (let (($x2029 (= cell_5_7 6)))
 (let (($x167 (= cell_5_7 5)))
 (let (($x3350 (= cell_5_7 4)))
 (let (($x2411 (= cell_5_7 3)))
 (let (($x2750 (= cell_5_7 2)))
 (let (($x525 (= cell_5_7 1)))
 (or $x525 $x2750 $x2411 $x3350 $x167 $x2029 $x1636 $x1211 $x1347)))))))))))
(assert
 (let (($x1518 (= cell_6_7 9)))
 (let (($x1236 (= cell_6_7 8)))
 (let (($x1230 (= cell_6_7 7)))
 (let (($x7789 (= cell_6_7 6)))
 (let (($x3469 (= cell_6_7 5)))
 (let (($x2637 (= cell_6_7 4)))
 (let (($x4056 (= cell_6_7 3)))
 (let (($x3421 (= cell_6_7 2)))
 (let (($x482 (= cell_6_7 1)))
 (or $x482 $x3421 $x4056 $x2637 $x3469 $x7789 $x1230 $x1236 $x1518)))))))))))
(assert
 (let (($x2772 (= cell_7_7 2)))
 (or (= cell_7_7 1) $x2772 (= cell_7_7 3) (= cell_7_7 4) (= cell_7_7 5) (= cell_7_7 6) (= cell_7_7 7) (= cell_7_7 8) (= cell_7_7 9))))
(assert
 (let (($x868 (= cell_8_7 9)))
 (let (($x2741 (= cell_8_7 8)))
 (let (($x1716 (= cell_8_7 7)))
 (let (($x3457 (= cell_8_7 6)))
 (let (($x2808 (= cell_8_7 5)))
 (let (($x7643 (= cell_8_7 4)))
 (let (($x954 (= cell_8_7 3)))
 (let (($x1768 (= cell_8_7 2)))
 (let (($x427 (= cell_8_7 1)))
 (or $x427 $x1768 $x954 $x7643 $x2808 $x3457 $x1716 $x2741 $x868)))))))))))
(assert
 (let (($x3794 (= cell_9_7 2)))
 (let (($x1226 (= cell_9_7 1)))
 (or $x1226 $x3794 (= cell_9_7 3) (= cell_9_7 4) (= cell_9_7 5) (= cell_9_7 6) (= cell_9_7 7) (= cell_9_7 8) (= cell_9_7 9)))))
(assert
 (let (($x613 (= cell_1_8 9)))
 (let (($x1758 (= cell_1_8 8)))
 (let (($x1995 (= cell_1_8 7)))
 (let (($x3940 (= cell_1_8 6)))
 (let (($x565 (= cell_1_8 5)))
 (let (($x7030 (= cell_1_8 4)))
 (let (($x2647 (= cell_1_8 3)))
 (let (($x1194 (= cell_1_8 2)))
 (let (($x3669 (= cell_1_8 1)))
 (or $x3669 $x1194 $x2647 $x7030 $x565 $x3940 $x1995 $x1758 $x613)))))))))))
(assert
 (let (($x8025 (= cell_2_8 9)))
 (let (($x1188 (= cell_2_8 8)))
 (let (($x274 (= cell_2_8 7)))
 (let (($x1062 (= cell_2_8 6)))
 (let (($x1047 (= cell_2_8 5)))
 (let (($x289 (= cell_2_8 4)))
 (let (($x474 (= cell_2_8 3)))
 (let (($x7685 (= cell_2_8 2)))
 (let (($x2016 (= cell_2_8 1)))
 (or $x2016 $x7685 $x474 $x289 $x1047 $x1062 $x274 $x1188 $x8025)))))))))))
(assert
 (let (($x832 (= cell_3_8 9)))
 (let (($x2529 (= cell_3_8 8)))
 (let (($x2499 (= cell_3_8 7)))
 (let (($x2229 (= cell_3_8 6)))
 (let (($x751 (= cell_3_8 5)))
 (let (($x3837 (= cell_3_8 4)))
 (let (($x3355 (= cell_3_8 3)))
 (let (($x2106 (= cell_3_8 2)))
 (let (($x2814 (= cell_3_8 1)))
 (or $x2814 $x2106 $x3355 $x3837 $x751 $x2229 $x2499 $x2529 $x832)))))))))))
(assert
 (let (($x386 (= cell_4_8 9)))
 (let (($x2222 (= cell_4_8 8)))
 (let (($x2319 (= cell_4_8 7)))
 (let (($x1246 (= cell_4_8 6)))
 (let (($x54 (= cell_4_8 5)))
 (let (($x1654 (= cell_4_8 4)))
 (let (($x2539 (= cell_4_8 3)))
 (let (($x311 (= cell_4_8 2)))
 (let (($x22 (= cell_4_8 1)))
 (or $x22 $x311 $x2539 $x1654 $x54 $x1246 $x2319 $x2222 $x386)))))))))))
(assert
 (let (($x4053 (= cell_5_8 2)))
 (or (= cell_5_8 1) $x4053 (= cell_5_8 3) (= cell_5_8 4) (= cell_5_8 5) (= cell_5_8 6) (= cell_5_8 7) (= cell_5_8 8) (= cell_5_8 9))))
(assert
 (let (($x1359 (= cell_6_8 9)))
 (let (($x188 (= cell_6_8 8)))
 (let (($x2564 (= cell_6_8 7)))
 (let (($x2812 (= cell_6_8 6)))
 (let (($x3570 (= cell_6_8 5)))
 (let (($x192 (= cell_6_8 4)))
 (let (($x316 (= cell_6_8 3)))
 (let (($x937 (= cell_6_8 2)))
 (let (($x1219 (= cell_6_8 1)))
 (or $x1219 $x937 $x316 $x192 $x3570 $x2812 $x2564 $x188 $x1359)))))))))))
(assert
 (let (($x2579 (= cell_7_8 9)))
 (let (($x1946 (= cell_7_8 8)))
 (let (($x7670 (= cell_7_8 7)))
 (let (($x3591 (= cell_7_8 6)))
 (let (($x2259 (= cell_7_8 5)))
 (let (($x3702 (= cell_7_8 4)))
 (let (($x114 (= cell_7_8 3)))
 (let (($x3556 (= cell_7_8 2)))
 (let (($x604 (= cell_7_8 1)))
 (or $x604 $x3556 $x114 $x3702 $x2259 $x3591 $x7670 $x1946 $x2579)))))))))))
(assert
 (let (($x2672 (= cell_8_8 1)))
 (or $x2672 (= cell_8_8 2) (= cell_8_8 3) (= cell_8_8 4) (= cell_8_8 5) (= cell_8_8 6) (= cell_8_8 7) (= cell_8_8 8) (= cell_8_8 9))))
(assert
 (let (($x2488 (= cell_9_8 2)))
 (let (($x2620 (= cell_9_8 1)))
 (or $x2620 $x2488 (= cell_9_8 3) (= cell_9_8 4) (= cell_9_8 5) (= cell_9_8 6) (= cell_9_8 7) (= cell_9_8 8) (= cell_9_8 9)))))
(assert
 (let (($x3399 (= cell_1_9 1)))
 (or $x3399 (= cell_1_9 2) (= cell_1_9 3) (= cell_1_9 4) (= cell_1_9 5) (= cell_1_9 6) (= cell_1_9 7) (= cell_1_9 8) (= cell_1_9 9))))
(assert
 (let (($x2789 (= cell_2_9 9)))
 (let (($x3047 (= cell_2_9 8)))
 (let (($x2441 (= cell_2_9 7)))
 (let (($x1209 (= cell_2_9 6)))
 (let (($x2771 (= cell_2_9 5)))
 (let (($x1520 (= cell_2_9 4)))
 (let (($x633 (= cell_2_9 3)))
 (let (($x1004 (= cell_2_9 2)))
 (let (($x3835 (= cell_2_9 1)))
 (or $x3835 $x1004 $x633 $x1520 $x2771 $x1209 $x2441 $x3047 $x2789)))))))))))
(assert
 (let (($x1795 (= cell_3_9 2)))
 (or (= cell_3_9 1) $x1795 (= cell_3_9 3) (= cell_3_9 4) (= cell_3_9 5) (= cell_3_9 6) (= cell_3_9 7) (= cell_3_9 8) (= cell_3_9 9))))
(assert
 (let (($x3274 (= cell_4_9 9)))
 (let (($x907 (= cell_4_9 8)))
 (let (($x1700 (= cell_4_9 7)))
 (let (($x2510 (= cell_4_9 6)))
 (let (($x1461 (= cell_4_9 5)))
 (let (($x2507 (= cell_4_9 4)))
 (let (($x3236 (= cell_4_9 3)))
 (let (($x3339 (= cell_4_9 2)))
 (let (($x3094 (= cell_4_9 1)))
 (or $x3094 $x3339 $x3236 $x2507 $x1461 $x2510 $x1700 $x907 $x3274)))))))))))
(assert
 (let (($x2339 (= cell_5_9 9)))
 (let (($x1775 (= cell_5_9 8)))
 (let (($x2049 (= cell_5_9 7)))
 (let (($x1517 (= cell_5_9 6)))
 (let (($x3453 (= cell_5_9 5)))
 (let (($x1251 (= cell_5_9 4)))
 (let (($x2445 (= cell_5_9 3)))
 (let (($x4119 (= cell_5_9 2)))
 (let (($x2193 (= cell_5_9 1)))
 (or $x2193 $x4119 $x2445 $x1251 $x3453 $x1517 $x2049 $x1775 $x2339)))))))))))
(assert
 (let (($x3531 (= cell_6_9 2)))
 (let (($x874 (= cell_6_9 1)))
 (or $x874 $x3531 (= cell_6_9 3) (= cell_6_9 4) (= cell_6_9 5) (= cell_6_9 6) (= cell_6_9 7) (= cell_6_9 8) (= cell_6_9 9)))))
(assert
 (let (($x2650 (= cell_7_9 9)))
 (let (($x3215 (= cell_7_9 8)))
 (let (($x2503 (= cell_7_9 7)))
 (let (($x4082 (= cell_7_9 6)))
 (let (($x11 (= cell_7_9 5)))
 (let (($x2884 (= cell_7_9 4)))
 (let (($x7788 (= cell_7_9 3)))
 (let (($x451 (= cell_7_9 2)))
 (let (($x1061 (= cell_7_9 1)))
 (or $x1061 $x451 $x7788 $x2884 $x11 $x4082 $x2503 $x3215 $x2650)))))))))))
(assert
 (let (($x3674 (= cell_8_9 2)))
 (let (($x3384 (= cell_8_9 1)))
 (or $x3384 $x3674 (= cell_8_9 3) (= cell_8_9 4) (= cell_8_9 5) (= cell_8_9 6) (= cell_8_9 7) (= cell_8_9 8) (= cell_8_9 9)))))
(assert
 (let (($x3827 (= cell_9_9 2)))
 (let (($x2674 (= cell_9_9 1)))
 (or $x2674 $x3827 (= cell_9_9 3) (= cell_9_9 4) (= cell_9_9 5) (= cell_9_9 6) (= cell_9_9 7) (= cell_9_9 8) (= cell_9_9 9)))))
(assert
 (and (distinct cell_1_1 cell_1_2 cell_1_3 cell_1_4 cell_1_5 cell_1_6 cell_1_7 cell_1_8 cell_1_9) true))
(assert
 (and (distinct cell_2_1 cell_2_2 cell_2_3 cell_2_4 cell_2_5 cell_2_6 cell_2_7 cell_2_8 cell_2_9) true))
(assert
 (and (distinct cell_3_1 cell_3_2 cell_3_3 cell_3_4 cell_3_5 cell_3_6 cell_3_7 cell_3_8 cell_3_9) true))
(assert
 (and (distinct cell_4_1 cell_4_2 cell_4_3 cell_4_4 cell_4_5 cell_4_6 cell_4_7 cell_4_8 cell_4_9) true))
(assert
 (and (distinct cell_5_1 cell_5_2 cell_5_3 cell_5_4 cell_5_5 cell_5_6 cell_5_7 cell_5_8 cell_5_9) true))
(assert
 (and (distinct cell_6_1 cell_6_2 cell_6_3 cell_6_4 cell_6_5 cell_6_6 cell_6_7 cell_6_8 cell_6_9) true))
(assert
 (and (distinct cell_7_1 cell_7_2 cell_7_3 cell_7_4 cell_7_5 cell_7_6 cell_7_7 cell_7_8 cell_7_9) true))
(assert
 (and (distinct cell_8_1 cell_8_2 cell_8_3 cell_8_4 cell_8_5 cell_8_6 cell_8_7 cell_8_8 cell_8_9) true))
(assert
 (and (distinct cell_9_1 cell_9_2 cell_9_3 cell_9_4 cell_9_5 cell_9_6 cell_9_7 cell_9_8 cell_9_9) true))
(assert
 (and (distinct cell_1_1 cell_2_1 cell_3_1 cell_4_1 cell_5_1 cell_6_1 cell_7_1 cell_8_1 cell_9_1) true))
(assert
 (and (distinct cell_1_2 cell_2_2 cell_3_2 cell_4_2 cell_5_2 cell_6_2 cell_7_2 cell_8_2 cell_9_2) true))
(assert
 (and (distinct cell_1_3 cell_2_3 cell_3_3 cell_4_3 cell_5_3 cell_6_3 cell_7_3 cell_8_3 cell_9_3) true))
(assert
 (and (distinct cell_1_4 cell_2_4 cell_3_4 cell_4_4 cell_5_4 cell_6_4 cell_7_4 cell_8_4 cell_9_4) true))
(assert
 (and (distinct cell_1_5 cell_2_5 cell_3_5 cell_4_5 cell_5_5 cell_6_5 cell_7_5 cell_8_5 cell_9_5) true))
(assert
 (and (distinct cell_1_6 cell_2_6 cell_3_6 cell_4_6 cell_5_6 cell_6_6 cell_7_6 cell_8_6 cell_9_6) true))
(assert
 (and (distinct cell_1_7 cell_2_7 cell_3_7 cell_4_7 cell_5_7 cell_6_7 cell_7_7 cell_8_7 cell_9_7) true))
(assert
 (and (distinct cell_1_8 cell_2_8 cell_3_8 cell_4_8 cell_5_8 cell_6_8 cell_7_8 cell_8_8 cell_9_8) true))
(assert
 (and (distinct cell_1_9 cell_2_9 cell_3_9 cell_4_9 cell_5_9 cell_6_9 cell_7_9 cell_8_9 cell_9_9) true))
(assert
 (and (distinct cell_1_1 cell_1_2 cell_1_3 cell_2_1 cell_2_2 cell_2_3 cell_3_1 cell_3_2 cell_3_3) true))
(assert
 (and (distinct cell_1_4 cell_1_5 cell_1_6 cell_2_4 cell_2_5 cell_2_6 cell_3_4 cell_3_5 cell_3_6) true))
(assert
 (and (distinct cell_1_7 cell_1_8 cell_1_9 cell_2_7 cell_2_8 cell_2_9 cell_3_7 cell_3_8 cell_3_9) true))
(assert
 (and (distinct cell_4_1 cell_4_2 cell_4_3 cell_5_1 cell_5_2 cell_5_3 cell_6_1 cell_6_2 cell_6_3) true))
(assert
 (and (distinct cell_4_4 cell_4_5 cell_4_6 cell_5_4 cell_5_5 cell_5_6 cell_6_4 cell_6_5 cell_6_6) true))
(assert
 (and (distinct cell_4_7 cell_4_8 cell_4_9 cell_5_7 cell_5_8 cell_5_9 cell_6_7 cell_6_8 cell_6_9) true))
(assert
 (and (distinct cell_7_1 cell_7_2 cell_7_3 cell_8_1 cell_8_2 cell_8_3 cell_9_1 cell_9_2 cell_9_3) true))
(assert
 (and (distinct cell_7_4 cell_7_5 cell_7_6 cell_8_4 cell_8_5 cell_8_6 cell_9_4 cell_9_5 cell_9_6) true))
(assert
 (and (distinct cell_7_7 cell_7_8 cell_7_9 cell_8_7 cell_8_8 cell_8_9 cell_9_7 cell_9_8 cell_9_9) true))
(assert
 (let (($x627 (and (distinct cell_5_9 cell_6_8 cell_7_7 cell_8_6) true)))
 (let (($x2580 (and (distinct cell_2_9 cell_3_8 cell_4_7 cell_5_6 cell_6_5 cell_7_4 cell_8_3 cell_9_2) true)))
 (let (($x506 (and (distinct cell_1_8 cell_2_7 cell_3_6 cell_4_5 cell_5_4 cell_6_3 cell_7_2 cell_8_1) true)))
 (let (($x1818 (and (distinct cell_1_5 cell_2_4 cell_3_3 cell_4_2) true)))
 (let (($x2044 (and (distinct cell_5_1 cell_6_2 cell_7_3 cell_8_4) true)))
 (let (($x74 (and (distinct cell_2_1 cell_3_2 cell_4_3 cell_5_4 cell_6_5 cell_7_6 cell_8_7 cell_9_8) true)))
 (let (($x3143 (and (distinct cell_1_2 cell_2_3 cell_3_4 cell_4_5 cell_5_6 cell_6_7 cell_7_8 cell_8_9) true)))
 (let (($x2730 (and (distinct cell_1_5 cell_2_6 cell_3_7 cell_4_8) true)))
 (and $x2730 $x3143 $x74 $x2044 $x1818 $x506 $x2580 $x627))))))))))
(assert
 (= cell_9_1 2))
(check-sat)
